TCS_Benchmarks/redos_fix/corpus1_output_distinct_794_793_0_0.smt2
(set-logic QF_S)
(declare-const x String)
(assert (str.in.re x (re.inter  (re.++  (re.++  (re.union (str.to_re "") (re.union  (re.++  (re.union (re.range "\u{61}" "\u{66}") (re.range "\u{30}" "\u{39}"))  (str.to_re "")) (re.union  (re.++  (re.union (re.range "\u{61}" "\u{66}") (re.range "\u{30}" "\u{39}"))   (re.++  (re.union (re.range "\u{61}" "\u{66}") (re.range "\u{30}" "\u{39}"))  (str.to_re ""))) (re.union  (re.++  (re.union (re.range "\u{61}" "\u{66}") (re.range "\u{30}" "\u{39}"))   (re.++  (re.union (re.range "\u{61}" "\u{66}") (re.range "\u{30}" "\u{39}"))   (re.++  (re.union (re.range "\u{61}" "\u{66}") (re.range "\u{30}" "\u{39}"))  (str.to_re ""))))  (re.++  (re.union (re.range "\u{61}" "\u{66}") (re.range "\u{30}" "\u{39}"))   (re.++  (re.union (re.range "\u{61}" "\u{66}") (re.range "\u{30}" "\u{39}"))   (re.++  (re.union (re.range "\u{61}" "\u{66}") (re.range "\u{30}" "\u{39}"))   (re.++  (re.union (re.range "\u{61}" "\u{66}") (re.range "\u{30}" "\u{39}"))  (str.to_re ""))))))))) (re.opt  (str.to.re "\u{3a}") )) (re.++  (re.++  (re.union (str.to_re "") (re.union  (re.++  (re.union (re.range "\u{61}" "\u{66}") (re.range "\u{30}" "\u{39}"))  (str.to_re "")) (re.union  (re.++  (re.union (re.range "\u{61}" "\u{66}") (re.range "\u{30}" "\u{39}"))   (re.++  (re.union (re.range "\u{61}" "\u{66}") (re.range "\u{30}" "\u{39}"))  (str.to_re ""))) (re.union  (re.++  (re.union (re.range "\u{61}" "\u{66}") (re.range "\u{30}" "\u{39}"))   (re.++  (re.union (re.range "\u{61}" "\u{66}") (re.range "\u{30}" "\u{39}"))   (re.++  (re.union (re.range "\u{61}" "\u{66}") (re.range "\u{30}" "\u{39}"))  (str.to_re ""))))  (re.++  (re.union (re.range "\u{61}" "\u{66}") (re.range "\u{30}" "\u{39}"))   (re.++  (re.union (re.range "\u{61}" "\u{66}") (re.range "\u{30}" "\u{39}"))   (re.++  (re.union (re.range "\u{61}" "\u{66}") (re.range "\u{30}" "\u{39}"))   (re.++  (re.union (re.range "\u{61}" "\u{66}") (re.range "\u{30}" "\u{39}"))  (str.to_re ""))))))))) (re.opt  (str.to.re "\u{3a}") )) (re.++  (re.++  (re.union (str.to_re "") (re.union  (re.++  (re.union (re.range "\u{61}" "\u{66}") (re.range "\u{30}" "\u{39}"))  (str.to_re "")) (re.union  (re.++  (re.union (re.range "\u{61}" "\u{66}") (re.range "\u{30}" "\u{39}"))   (re.++  (re.union (re.range "\u{61}" "\u{66}") (re.range "\u{30}" "\u{39}"))  (str.to_re ""))) (re.union  (re.++  (re.union (re.range "\u{61}" "\u{66}") (re.range "\u{30}" "\u{39}"))   (re.++  (re.union (re.range "\u{61}" "\u{66}") (re.range "\u{30}" "\u{39}"))   (re.++  (re.union (re.range "\u{61}" "\u{66}") (re.range "\u{30}" "\u{39}"))  (str.to_re ""))))  (re.++  (re.union (re.range "\u{61}" "\u{66}") (re.range "\u{30}" "\u{39}"))   (re.++  (re.union (re.range "\u{61}" "\u{66}") (re.range "\u{30}" "\u{39}"))   (re.++  (re.union (re.range "\u{61}" "\u{66}") (re.range "\u{30}" "\u{39}"))   (re.++  (re.union (re.range "\u{61}" "\u{66}") (re.range "\u{30}" "\u{39}"))  (str.to_re ""))))))))) (re.opt  (str.to.re "\u{3a}") )) (re.++  (re.++  (re.union (str.to_re "") (re.union  (re.++  (re.union (re.range "\u{61}" "\u{66}") (re.range "\u{30}" "\u{39}"))  (str.to_re "")) (re.union  (re.++  (re.union (re.range "\u{61}" "\u{66}") (re.range "\u{30}" "\u{39}"))   (re.++  (re.union (re.range "\u{61}" "\u{66}") (re.range "\u{30}" "\u{39}"))  (str.to_re ""))) (re.union  (re.++  (re.union (re.range "\u{61}" "\u{66}") (re.range "\u{30}" "\u{39}"))   (re.++  (re.union (re.range "\u{61}" "\u{66}") (re.range "\u{30}" "\u{39}"))   (re.++  (re.union (re.range "\u{61}" "\u{66}") (re.range "\u{30}" "\u{39}"))  (str.to_re ""))))  (re.++  (re.union (re.range "\u{61}" "\u{66}") (re.range "\u{30}" "\u{39}"))   (re.++  (re.union (re.range "\u{61}" "\u{66}") (re.range "\u{30}" "\u{39}"))   (re.++  (re.union (re.range "\u{61}" "\u{66}") (re.range "\u{30}" "\u{39}"))   (re.++  (re.union (re.range "\u{61}" "\u{66}") (re.range "\u{30}" "\u{39}"))  (str.to_re ""))))))))) (re.opt  (str.to.re "\u{3a}") )) (re.++  (re.++  (re.union (str.to_re "") (re.union  (re.++  (re.union (re.range "\u{61}" "\u{66}") (re.range "\u{30}" "\u{39}"))  (str.to_re "")) (re.union  (re.++  (re.union (re.range "\u{61}" "\u{66}") (re.range "\u{30}" "\u{39}"))   (re.++  (re.union (re.range "\u{61}" "\u{66}") (re.range "\u{30}" "\u{39}"))  (str.to_re ""))) (re.union  (re.++  (re.union (re.range "\u{61}" "\u{66}") (re.range "\u{30}" "\u{39}"))   (re.++  (re.union (re.range "\u{61}" "\u{66}") (re.range "\u{30}" "\u{39}"))   (re.++  (re.union (re.range "\u{61}" "\u{66}") (re.range "\u{30}" "\u{39}"))  (str.to_re ""))))  (re.++  (re.union (re.range "\u{61}" "\u{66}") (re.range "\u{30}" "\u{39}"))   (re.++  (re.union (re.range "\u{61}" "\u{66}") (re.range "\u{30}" "\u{39}"))   (re.++  (re.union (re.range "\u{61}" "\u{66}") (re.range "\u{30}" "\u{39}"))   (re.++  (re.union (re.range "\u{61}" "\u{66}") (re.range "\u{30}" "\u{39}"))  (str.to_re ""))))))))) (re.opt  (str.to.re "\u{3a}") ))  (re.++  (re.union (str.to_re "") (re.union  (re.++  (re.union (re.range "\u{61}" "\u{66}") (re.range "\u{30}" "\u{39}"))  (str.to_re "")) (re.union  (re.++  (re.union (re.range "\u{61}" "\u{66}") (re.range "\u{30}" "\u{39}"))   (re.++  (re.union (re.range "\u{61}" "\u{66}") (re.range "\u{30}" "\u{39}"))  (str.to_re ""))) (re.union  (re.++  (re.union (re.range "\u{61}" "\u{66}") (re.range "\u{30}" "\u{39}"))   (re.++  (re.union (re.range "\u{61}" "\u{66}") (re.range "\u{30}" "\u{39}"))   (re.++  (re.union (re.range "\u{61}" "\u{66}") (re.range "\u{30}" "\u{39}"))  (str.to_re ""))))  (re.++  (re.union (re.range "\u{61}" "\u{66}") (re.range "\u{30}" "\u{39}"))   (re.++  (re.union (re.range "\u{61}" "\u{66}") (re.range "\u{30}" "\u{39}"))   (re.++  (re.union (re.range "\u{61}" "\u{66}") (re.range "\u{30}" "\u{39}"))   (re.++  (re.union (re.range "\u{61}" "\u{66}") (re.range "\u{30}" "\u{39}"))  (str.to_re ""))))))))) (re.opt  (str.to.re "\u{3a}") )))))))  (re.union (str.to_re "") (re.union  (re.++  (re.union (re.range "\u{61}" "\u{66}") (re.range "\u{30}" "\u{39}"))  (str.to_re "")) (re.union  (re.++  (re.union (re.range "\u{61}" "\u{66}") (re.range "\u{30}" "\u{39}"))   (re.++  (re.union (re.range "\u{61}" "\u{66}") (re.range "\u{30}" "\u{39}"))  (str.to_re ""))) (re.union  (re.++  (re.union (re.range "\u{61}" "\u{66}") (re.range "\u{30}" "\u{39}"))   (re.++  (re.union (re.range "\u{61}" "\u{66}") (re.range "\u{30}" "\u{39}"))   (re.++  (re.union (re.range "\u{61}" "\u{66}") (re.range "\u{30}" "\u{39}"))  (str.to_re ""))))  (re.++  (re.union (re.range "\u{61}" "\u{66}") (re.range "\u{30}" "\u{39}"))   (re.++  (re.union (re.range "\u{61}" "\u{66}") (re.range "\u{30}" "\u{39}"))   (re.++  (re.union (re.range "\u{61}" "\u{66}") (re.range "\u{30}" "\u{39}"))   (re.++  (re.union (re.range "\u{61}" "\u{66}") (re.range "\u{30}" "\u{39}"))  (str.to_re ""))))))))) )))
(check-sat)
(get-model)