TCS_Benchmarks/redos_fix/corpus1_output_distinct_794_793_0_0.txt
([a-f0-9]{0,4}((:)?)){6}
[a-f0-9]{0,4}